p cnf 441 1495
c p weight -175 1 0
c p weight 175 -1 0
c p weight 179 6.12323399573676603586882014729198302312846062338790031898128063403419218957424163818359375E-17 0
c p weight -179 1 0
c p weight 180 1 0
c p weight -180 1 0
c p weight -177 1 0
c p weight 177 -1 0
c p weight -181 1 0
c p weight 181 -1 0
c p weight -183 1 0
c p weight 183 -1 0
c p weight -186 1 0
c p weight 186 -1 0
c p weight -189 1 0
c p weight 189 -1 0
c p weight -192 1 0
c p weight 192 -1 0
c p weight -195 1 0
c p weight 195 -1 0
c p weight -198 1 0
c p weight 198 -1 0
c p weight -201 1 0
c p weight 201 -1 0
c p weight -204 1 0
c p weight 204 -1 0
c p weight -207 1 0
c p weight 207 -1 0
c p weight -210 1 0
c p weight 210 -1 0
c p weight -213 1 0
c p weight 213 -1 0
c p weight -216 1 0
c p weight 216 -1 0
c p weight -219 1 0
c p weight 219 -1 0
c p weight -222 1 0
c p weight 222 -1 0
c p weight -225 1 0
c p weight 225 -1 0
c p weight -228 1 0
c p weight 228 -1 0
c p weight -231 1 0
c p weight 231 -1 0
c p weight -234 1 0
c p weight 234 -1 0
c p weight -237 1 0
c p weight 237 -1 0
c p weight -240 1 0
c p weight 240 -1 0
c p weight -243 1 0
c p weight 243 -1 0
c p weight -246 1 0
c p weight 246 -1 0
c p weight -249 1 0
c p weight 249 -1 0
c p weight -252 1 0
c p weight 252 -1 0
c p weight -255 1 0
c p weight 255 -1 0
c p weight -258 1 0
c p weight 258 -1 0
c p weight -261 1 0
c p weight 261 -1 0
c p weight -264 1 0
c p weight 264 -1 0
c p weight -267 1 0
c p weight 267 -1 0
c p weight -270 1 0
c p weight 270 -1 0
c p weight -273 1 0
c p weight 273 -1 0
c p weight -276 1 0
c p weight 276 -1 0
c p weight -279 1 0
c p weight 279 -1 0
c p weight -282 1 0
c p weight 282 -1 0
c p weight -285 1 0
c p weight 285 -1 0
c p weight -288 1 0
c p weight 288 -1 0
c p weight -291 1 0
c p weight 291 -1 0
c p weight -294 1 0
c p weight 294 -1 0
c p weight -297 1 0
c p weight 297 -1 0
c p weight -300 1 0
c p weight 300 -1 0
c p weight -303 1 0
c p weight 303 -1 0
c p weight -306 1 0
c p weight 306 -1 0
c p weight -309 1 0
c p weight 309 -1 0
c p weight -312 1 0
c p weight 312 -1 0
c p weight -315 1 0
c p weight 315 -1 0
c p weight -318 1 0
c p weight 318 -1 0
c p weight -321 1 0
c p weight 321 -1 0
c p weight -324 1 0
c p weight 324 -1 0
c p weight -327 1 0
c p weight 327 -1 0
c p weight -330 1 0
c p weight 330 -1 0
c p weight -333 1 0
c p weight 333 -1 0
c p weight -336 1 0
c p weight 336 -1 0
c p weight -339 1 0
c p weight 339 -1 0
c p weight -342 1 0
c p weight 342 -1 0
c p weight -345 1 0
c p weight 345 -1 0
c p weight -348 1 0
c p weight 348 -1 0
c p weight -351 1 0
c p weight 351 -1 0
c p weight -354 1 0
c p weight 354 -1 0
c p weight -357 1 0
c p weight 357 -1 0
c p weight -360 1 0
c p weight 360 -1 0
c p weight -363 1 0
c p weight 363 -1 0
c p weight -366 1 0
c p weight 366 -1 0
c p weight -369 1 0
c p weight 369 -1 0
c p weight -372 1 0
c p weight 372 -1 0
c p weight -375 1 0
c p weight 375 -1 0
c p weight -378 1 0
c p weight 378 -1 0
c p weight -381 1 0
c p weight 381 -1 0
c p weight -384 1 0
c p weight 384 -1 0
c p weight -387 1 0
c p weight 387 -1 0
c p weight -390 1 0
c p weight 390 -1 0
c p weight -393 1 0
c p weight 393 -1 0
c p weight -396 1 0
c p weight 396 -1 0
c p weight -399 1 0
c p weight 399 -1 0
c p weight -402 1 0
c p weight 402 -1 0
c p weight -405 1 0
c p weight 405 -1 0
c p weight -408 1 0
c p weight 408 -1 0
c p weight -411 1 0
c p weight 411 -1 0
c p weight -414 1 0
c p weight 414 -1 0
c p weight -417 1 0
c p weight 417 -1 0
c p weight -420 1 0
c p weight 420 -1 0
c p weight -423 1 0
c p weight 423 -1 0
c p weight -426 1 0
c p weight 426 -1 0
c p weight -429 1 0
c p weight 429 -1 0
c p weight -432 1 0
c p weight 432 -1 0
c p weight -435 1 0
c p weight 435 -1 0
c p weight -438 1 0
c p weight 438 -1 0
c p weight 441 0.5 0
c p weight -441 1 0
441 0
-173 0
-171 0
-169 0
-167 0
-165 0
-163 0
-161 0
-159 0
-157 0
-155 0
-153 0
-151 0
-149 0
-147 0
-145 0
-143 0
-141 0
-139 0
-137 0
-135 0
-133 0
-131 0
-129 0
-127 0
-125 0
-123 0
-121 0
-119 0
-117 0
-115 0
-113 0
-111 0
-109 0
-107 0
-105 0
-103 0
-101 0
-99 0
-97 0
-95 0
-93 0
-91 0
-89 0
-87 0
-85 0
-83 0
-81 0
-79 0
-77 0
-75 0
-73 0
-71 0
-69 0
-67 0
-65 0
-63 0
-61 0
-59 0
-57 0
-55 0
-53 0
-51 0
-49 0
-47 0
-45 0
-43 0
-41 0
-39 0
-37 0
-35 0
-33 0
-31 0
-29 0
-27 0
-25 0
-23 0
-21 0
-19 0
-17 0
-15 0
-13 0
-11 0
-9 0
-7 0
-5 0
-3 0
-1 0
-175 173 0
-175 174 0
175 -173 -174 0
176 173 -174 0
176 -173 174 0
-176 173 174 0
-176 -173 -174 0
-177 178 0
-177 176 0
-177 -173 0
177 -178 173 -176 0
178 -173 176 0
-178 173 176 0
-179 176 0
178 -179 -173 0
-178 -179 173 0
178 179 173 -176 0
-178 179 -173 -176 0
-180 176 0
178 -180 173 0
-178 -180 -173 0
178 180 -173 -176 0
-178 180 173 -176 0
-181 178 0
-181 176 0
181 -178 -176 0
182 178 -176 0
182 -178 176 0
-182 178 176 0
-182 -178 -176 0
-183 178 0
-183 172 0
-183 171 -182 0
-183 -171 182 0
183 -178 171 182 -172 0
183 -178 -171 -182 -172 0
185 178 -171 0
185 -178 171 0
-185 178 171 0
-185 -178 -171 0
184 182 -172 0
184 -182 172 0
-184 182 172 0
-184 -182 -172 0
-186 185 0
-186 170 0
-186 169 -172 0
-186 -169 172 0
186 -185 169 172 -170 0
186 -185 -169 -172 -170 0
188 185 -169 0
188 -185 169 0
-188 185 169 0
-188 -185 -169 0
187 172 -170 0
187 -172 170 0
-187 172 170 0
-187 -172 -170 0
-189 188 0
-189 168 0
-189 167 -170 0
-189 -167 170 0
189 -188 167 170 -168 0
189 -188 -167 -170 -168 0
191 188 -167 0
191 -188 167 0
-191 188 167 0
-191 -188 -167 0
190 170 -168 0
190 -170 168 0
-190 170 168 0
-190 -170 -168 0
-192 191 0
-192 166 0
-192 165 -168 0
-192 -165 168 0
192 -191 165 168 -166 0
192 -191 -165 -168 -166 0
194 191 -165 0
194 -191 165 0
-194 191 165 0
-194 -191 -165 0
193 168 -166 0
193 -168 166 0
-193 168 166 0
-193 -168 -166 0
-195 194 0
-195 164 0
-195 163 -166 0
-195 -163 166 0
195 -194 163 166 -164 0
195 -194 -163 -166 -164 0
197 194 -163 0
197 -194 163 0
-197 194 163 0
-197 -194 -163 0
196 166 -164 0
196 -166 164 0
-196 166 164 0
-196 -166 -164 0
-198 197 0
-198 162 0
-198 161 -164 0
-198 -161 164 0
198 -197 161 164 -162 0
198 -197 -161 -164 -162 0
200 197 -161 0
200 -197 161 0
-200 197 161 0
-200 -197 -161 0
199 164 -162 0
199 -164 162 0
-199 164 162 0
-199 -164 -162 0
-201 200 0
-201 160 0
-201 159 -162 0
-201 -159 162 0
201 -200 159 162 -160 0
201 -200 -159 -162 -160 0
203 200 -159 0
203 -200 159 0
-203 200 159 0
-203 -200 -159 0
202 162 -160 0
202 -162 160 0
-202 162 160 0
-202 -162 -160 0
-204 203 0
-204 158 0
-204 157 -160 0
-204 -157 160 0
204 -203 157 160 -158 0
204 -203 -157 -160 -158 0
206 203 -157 0
206 -203 157 0
-206 203 157 0
-206 -203 -157 0
205 160 -158 0
205 -160 158 0
-205 160 158 0
-205 -160 -158 0
-207 206 0
-207 156 0
-207 155 -158 0
-207 -155 158 0
207 -206 155 158 -156 0
207 -206 -155 -158 -156 0
209 206 -155 0
209 -206 155 0
-209 206 155 0
-209 -206 -155 0
208 158 -156 0
208 -158 156 0
-208 158 156 0
-208 -158 -156 0
-210 209 0
-210 154 0
-210 153 -156 0
-210 -153 156 0
210 -209 153 156 -154 0
210 -209 -153 -156 -154 0
212 209 -153 0
212 -209 153 0
-212 209 153 0
-212 -209 -153 0
211 156 -154 0
211 -156 154 0
-211 156 154 0
-211 -156 -154 0
-213 212 0
-213 152 0
-213 151 -154 0
-213 -151 154 0
213 -212 151 154 -152 0
213 -212 -151 -154 -152 0
215 212 -151 0
215 -212 151 0
-215 212 151 0
-215 -212 -151 0
214 154 -152 0
214 -154 152 0
-214 154 152 0
-214 -154 -152 0
-216 215 0
-216 150 0
-216 149 -152 0
-216 -149 152 0
216 -215 149 152 -150 0
216 -215 -149 -152 -150 0
218 215 -149 0
218 -215 149 0
-218 215 149 0
-218 -215 -149 0
217 152 -150 0
217 -152 150 0
-217 152 150 0
-217 -152 -150 0
-219 218 0
-219 148 0
-219 147 -150 0
-219 -147 150 0
219 -218 147 150 -148 0
219 -218 -147 -150 -148 0
221 218 -147 0
221 -218 147 0
-221 218 147 0
-221 -218 -147 0
220 150 -148 0
220 -150 148 0
-220 150 148 0
-220 -150 -148 0
-222 221 0
-222 146 0
-222 145 -148 0
-222 -145 148 0
222 -221 145 148 -146 0
222 -221 -145 -148 -146 0
224 221 -145 0
224 -221 145 0
-224 221 145 0
-224 -221 -145 0
223 148 -146 0
223 -148 146 0
-223 148 146 0
-223 -148 -146 0
-225 224 0
-225 144 0
-225 143 -146 0
-225 -143 146 0
225 -224 143 146 -144 0
225 -224 -143 -146 -144 0
227 224 -143 0
227 -224 143 0
-227 224 143 0
-227 -224 -143 0
226 146 -144 0
226 -146 144 0
-226 146 144 0
-226 -146 -144 0
-228 227 0
-228 142 0
-228 141 -144 0
-228 -141 144 0
228 -227 141 144 -142 0
228 -227 -141 -144 -142 0
230 227 -141 0
230 -227 141 0
-230 227 141 0
-230 -227 -141 0
229 144 -142 0
229 -144 142 0
-229 144 142 0
-229 -144 -142 0
-231 230 0
-231 140 0
-231 139 -142 0
-231 -139 142 0
231 -230 139 142 -140 0
231 -230 -139 -142 -140 0
233 230 -139 0
233 -230 139 0
-233 230 139 0
-233 -230 -139 0
232 142 -140 0
232 -142 140 0
-232 142 140 0
-232 -142 -140 0
-234 233 0
-234 138 0
-234 137 -140 0
-234 -137 140 0
234 -233 137 140 -138 0
234 -233 -137 -140 -138 0
236 233 -137 0
236 -233 137 0
-236 233 137 0
-236 -233 -137 0
235 140 -138 0
235 -140 138 0
-235 140 138 0
-235 -140 -138 0
-237 236 0
-237 136 0
-237 135 -138 0
-237 -135 138 0
237 -236 135 138 -136 0
237 -236 -135 -138 -136 0
239 236 -135 0
239 -236 135 0
-239 236 135 0
-239 -236 -135 0
238 138 -136 0
238 -138 136 0
-238 138 136 0
-238 -138 -136 0
-240 239 0
-240 134 0
-240 133 -136 0
-240 -133 136 0
240 -239 133 136 -134 0
240 -239 -133 -136 -134 0
242 239 -133 0
242 -239 133 0
-242 239 133 0
-242 -239 -133 0
241 136 -134 0
241 -136 134 0
-241 136 134 0
-241 -136 -134 0
-243 242 0
-243 132 0
-243 131 -134 0
-243 -131 134 0
243 -242 131 134 -132 0
243 -242 -131 -134 -132 0
245 242 -131 0
245 -242 131 0
-245 242 131 0
-245 -242 -131 0
244 134 -132 0
244 -134 132 0
-244 134 132 0
-244 -134 -132 0
-246 245 0
-246 130 0
-246 129 -132 0
-246 -129 132 0
246 -245 129 132 -130 0
246 -245 -129 -132 -130 0
248 245 -129 0
248 -245 129 0
-248 245 129 0
-248 -245 -129 0
247 132 -130 0
247 -132 130 0
-247 132 130 0
-247 -132 -130 0
-249 248 0
-249 128 0
-249 127 -130 0
-249 -127 130 0
249 -248 127 130 -128 0
249 -248 -127 -130 -128 0
251 248 -127 0
251 -248 127 0
-251 248 127 0
-251 -248 -127 0
250 130 -128 0
250 -130 128 0
-250 130 128 0
-250 -130 -128 0
-252 251 0
-252 126 0
-252 125 -128 0
-252 -125 128 0
252 -251 125 128 -126 0
252 -251 -125 -128 -126 0
254 251 -125 0
254 -251 125 0
-254 251 125 0
-254 -251 -125 0
253 128 -126 0
253 -128 126 0
-253 128 126 0
-253 -128 -126 0
-255 254 0
-255 124 0
-255 123 -126 0
-255 -123 126 0
255 -254 123 126 -124 0
255 -254 -123 -126 -124 0
257 254 -123 0
257 -254 123 0
-257 254 123 0
-257 -254 -123 0
256 126 -124 0
256 -126 124 0
-256 126 124 0
-256 -126 -124 0
-258 257 0
-258 122 0
-258 121 -124 0
-258 -121 124 0
258 -257 121 124 -122 0
258 -257 -121 -124 -122 0
260 257 -121 0
260 -257 121 0
-260 257 121 0
-260 -257 -121 0
259 124 -122 0
259 -124 122 0
-259 124 122 0
-259 -124 -122 0
-261 260 0
-261 120 0
-261 119 -122 0
-261 -119 122 0
261 -260 119 122 -120 0
261 -260 -119 -122 -120 0
263 260 -119 0
263 -260 119 0
-263 260 119 0
-263 -260 -119 0
262 122 -120 0
262 -122 120 0
-262 122 120 0
-262 -122 -120 0
-264 263 0
-264 118 0
-264 117 -120 0
-264 -117 120 0
264 -263 117 120 -118 0
264 -263 -117 -120 -118 0
266 263 -117 0
266 -263 117 0
-266 263 117 0
-266 -263 -117 0
265 120 -118 0
265 -120 118 0
-265 120 118 0
-265 -120 -118 0
-267 266 0
-267 116 0
-267 115 -118 0
-267 -115 118 0
267 -266 115 118 -116 0
267 -266 -115 -118 -116 0
269 266 -115 0
269 -266 115 0
-269 266 115 0
-269 -266 -115 0
268 118 -116 0
268 -118 116 0
-268 118 116 0
-268 -118 -116 0
-270 269 0
-270 114 0
-270 113 -116 0
-270 -113 116 0
270 -269 113 116 -114 0
270 -269 -113 -116 -114 0
272 269 -113 0
272 -269 113 0
-272 269 113 0
-272 -269 -113 0
271 116 -114 0
271 -116 114 0
-271 116 114 0
-271 -116 -114 0
-273 272 0
-273 112 0
-273 111 -114 0
-273 -111 114 0
273 -272 111 114 -112 0
273 -272 -111 -114 -112 0
275 272 -111 0
275 -272 111 0
-275 272 111 0
-275 -272 -111 0
274 114 -112 0
274 -114 112 0
-274 114 112 0
-274 -114 -112 0
-276 275 0
-276 110 0
-276 109 -112 0
-276 -109 112 0
276 -275 109 112 -110 0
276 -275 -109 -112 -110 0
278 275 -109 0
278 -275 109 0
-278 275 109 0
-278 -275 -109 0
277 112 -110 0
277 -112 110 0
-277 112 110 0
-277 -112 -110 0
-279 278 0
-279 108 0
-279 107 -110 0
-279 -107 110 0
279 -278 107 110 -108 0
279 -278 -107 -110 -108 0
281 278 -107 0
281 -278 107 0
-281 278 107 0
-281 -278 -107 0
280 110 -108 0
280 -110 108 0
-280 110 108 0
-280 -110 -108 0
-282 281 0
-282 106 0
-282 105 -108 0
-282 -105 108 0
282 -281 105 108 -106 0
282 -281 -105 -108 -106 0
284 281 -105 0
284 -281 105 0
-284 281 105 0
-284 -281 -105 0
283 108 -106 0
283 -108 106 0
-283 108 106 0
-283 -108 -106 0
-285 284 0
-285 104 0
-285 103 -106 0
-285 -103 106 0
285 -284 103 106 -104 0
285 -284 -103 -106 -104 0
287 284 -103 0
287 -284 103 0
-287 284 103 0
-287 -284 -103 0
286 106 -104 0
286 -106 104 0
-286 106 104 0
-286 -106 -104 0
-288 287 0
-288 102 0
-288 101 -104 0
-288 -101 104 0
288 -287 101 104 -102 0
288 -287 -101 -104 -102 0
290 287 -101 0
290 -287 101 0
-290 287 101 0
-290 -287 -101 0
289 104 -102 0
289 -104 102 0
-289 104 102 0
-289 -104 -102 0
-291 290 0
-291 100 0
-291 99 -102 0
-291 -99 102 0
291 -290 99 102 -100 0
291 -290 -99 -102 -100 0
293 290 -99 0
293 -290 99 0
-293 290 99 0
-293 -290 -99 0
292 102 -100 0
292 -102 100 0
-292 102 100 0
-292 -102 -100 0
-294 293 0
-294 98 0
-294 97 -100 0
-294 -97 100 0
294 -293 97 100 -98 0
294 -293 -97 -100 -98 0
296 293 -97 0
296 -293 97 0
-296 293 97 0
-296 -293 -97 0
295 100 -98 0
295 -100 98 0
-295 100 98 0
-295 -100 -98 0
-297 296 0
-297 96 0
-297 95 -98 0
-297 -95 98 0
297 -296 95 98 -96 0
297 -296 -95 -98 -96 0
299 296 -95 0
299 -296 95 0
-299 296 95 0
-299 -296 -95 0
298 98 -96 0
298 -98 96 0
-298 98 96 0
-298 -98 -96 0
-300 299 0
-300 94 0
-300 93 -96 0
-300 -93 96 0
300 -299 93 96 -94 0
300 -299 -93 -96 -94 0
302 299 -93 0
302 -299 93 0
-302 299 93 0
-302 -299 -93 0
301 96 -94 0
301 -96 94 0
-301 96 94 0
-301 -96 -94 0
-303 302 0
-303 92 0
-303 91 -94 0
-303 -91 94 0
303 -302 91 94 -92 0
303 -302 -91 -94 -92 0
305 302 -91 0
305 -302 91 0
-305 302 91 0
-305 -302 -91 0
304 94 -92 0
304 -94 92 0
-304 94 92 0
-304 -94 -92 0
-306 305 0
-306 90 0
-306 89 -92 0
-306 -89 92 0
306 -305 89 92 -90 0
306 -305 -89 -92 -90 0
308 305 -89 0
308 -305 89 0
-308 305 89 0
-308 -305 -89 0
307 92 -90 0
307 -92 90 0
-307 92 90 0
-307 -92 -90 0
-309 308 0
-309 88 0
-309 87 -90 0
-309 -87 90 0
309 -308 87 90 -88 0
309 -308 -87 -90 -88 0
311 308 -87 0
311 -308 87 0
-311 308 87 0
-311 -308 -87 0
310 90 -88 0
310 -90 88 0
-310 90 88 0
-310 -90 -88 0
-312 311 0
-312 86 0
-312 85 -88 0
-312 -85 88 0
312 -311 85 88 -86 0
312 -311 -85 -88 -86 0
314 311 -85 0
314 -311 85 0
-314 311 85 0
-314 -311 -85 0
313 88 -86 0
313 -88 86 0
-313 88 86 0
-313 -88 -86 0
-315 314 0
-315 84 0
-315 83 -86 0
-315 -83 86 0
315 -314 83 86 -84 0
315 -314 -83 -86 -84 0
317 314 -83 0
317 -314 83 0
-317 314 83 0
-317 -314 -83 0
316 86 -84 0
316 -86 84 0
-316 86 84 0
-316 -86 -84 0
-318 317 0
-318 82 0
-318 81 -84 0
-318 -81 84 0
318 -317 81 84 -82 0
318 -317 -81 -84 -82 0
320 317 -81 0
320 -317 81 0
-320 317 81 0
-320 -317 -81 0
319 84 -82 0
319 -84 82 0
-319 84 82 0
-319 -84 -82 0
-321 320 0
-321 80 0
-321 79 -82 0
-321 -79 82 0
321 -320 79 82 -80 0
321 -320 -79 -82 -80 0
323 320 -79 0
323 -320 79 0
-323 320 79 0
-323 -320 -79 0
322 82 -80 0
322 -82 80 0
-322 82 80 0
-322 -82 -80 0
-324 323 0
-324 78 0
-324 77 -80 0
-324 -77 80 0
324 -323 77 80 -78 0
324 -323 -77 -80 -78 0
326 323 -77 0
326 -323 77 0
-326 323 77 0
-326 -323 -77 0
325 80 -78 0
325 -80 78 0
-325 80 78 0
-325 -80 -78 0
-327 326 0
-327 76 0
-327 75 -78 0
-327 -75 78 0
327 -326 75 78 -76 0
327 -326 -75 -78 -76 0
329 326 -75 0
329 -326 75 0
-329 326 75 0
-329 -326 -75 0
328 78 -76 0
328 -78 76 0
-328 78 76 0
-328 -78 -76 0
-330 329 0
-330 74 0
-330 73 -76 0
-330 -73 76 0
330 -329 73 76 -74 0
330 -329 -73 -76 -74 0
332 329 -73 0
332 -329 73 0
-332 329 73 0
-332 -329 -73 0
331 76 -74 0
331 -76 74 0
-331 76 74 0
-331 -76 -74 0
-333 332 0
-333 72 0
-333 71 -74 0
-333 -71 74 0
333 -332 71 74 -72 0
333 -332 -71 -74 -72 0
335 332 -71 0
335 -332 71 0
-335 332 71 0
-335 -332 -71 0
334 74 -72 0
334 -74 72 0
-334 74 72 0
-334 -74 -72 0
-336 335 0
-336 70 0
-336 69 -72 0
-336 -69 72 0
336 -335 69 72 -70 0
336 -335 -69 -72 -70 0
338 335 -69 0
338 -335 69 0
-338 335 69 0
-338 -335 -69 0
337 72 -70 0
337 -72 70 0
-337 72 70 0
-337 -72 -70 0
-339 338 0
-339 68 0
-339 67 -70 0
-339 -67 70 0
339 -338 67 70 -68 0
339 -338 -67 -70 -68 0
341 338 -67 0
341 -338 67 0
-341 338 67 0
-341 -338 -67 0
340 70 -68 0
340 -70 68 0
-340 70 68 0
-340 -70 -68 0
-342 341 0
-342 66 0
-342 65 -68 0
-342 -65 68 0
342 -341 65 68 -66 0
342 -341 -65 -68 -66 0
344 341 -65 0
344 -341 65 0
-344 341 65 0
-344 -341 -65 0
343 68 -66 0
343 -68 66 0
-343 68 66 0
-343 -68 -66 0
-345 344 0
-345 64 0
-345 63 -66 0
-345 -63 66 0
345 -344 63 66 -64 0
345 -344 -63 -66 -64 0
347 344 -63 0
347 -344 63 0
-347 344 63 0
-347 -344 -63 0
346 66 -64 0
346 -66 64 0
-346 66 64 0
-346 -66 -64 0
-348 347 0
-348 62 0
-348 61 -64 0
-348 -61 64 0
348 -347 61 64 -62 0
348 -347 -61 -64 -62 0
350 347 -61 0
350 -347 61 0
-350 347 61 0
-350 -347 -61 0
349 64 -62 0
349 -64 62 0
-349 64 62 0
-349 -64 -62 0
-351 350 0
-351 60 0
-351 59 -62 0
-351 -59 62 0
351 -350 59 62 -60 0
351 -350 -59 -62 -60 0
353 350 -59 0
353 -350 59 0
-353 350 59 0
-353 -350 -59 0
352 62 -60 0
352 -62 60 0
-352 62 60 0
-352 -62 -60 0
-354 353 0
-354 58 0
-354 57 -60 0
-354 -57 60 0
354 -353 57 60 -58 0
354 -353 -57 -60 -58 0
356 353 -57 0
356 -353 57 0
-356 353 57 0
-356 -353 -57 0
355 60 -58 0
355 -60 58 0
-355 60 58 0
-355 -60 -58 0
-357 356 0
-357 56 0
-357 55 -58 0
-357 -55 58 0
357 -356 55 58 -56 0
357 -356 -55 -58 -56 0
359 356 -55 0
359 -356 55 0
-359 356 55 0
-359 -356 -55 0
358 58 -56 0
358 -58 56 0
-358 58 56 0
-358 -58 -56 0
-360 359 0
-360 54 0
-360 53 -56 0
-360 -53 56 0
360 -359 53 56 -54 0
360 -359 -53 -56 -54 0
362 359 -53 0
362 -359 53 0
-362 359 53 0
-362 -359 -53 0
361 56 -54 0
361 -56 54 0
-361 56 54 0
-361 -56 -54 0
-363 362 0
-363 52 0
-363 51 -54 0
-363 -51 54 0
363 -362 51 54 -52 0
363 -362 -51 -54 -52 0
365 362 -51 0
365 -362 51 0
-365 362 51 0
-365 -362 -51 0
364 54 -52 0
364 -54 52 0
-364 54 52 0
-364 -54 -52 0
-366 365 0
-366 50 0
-366 49 -52 0
-366 -49 52 0
366 -365 49 52 -50 0
366 -365 -49 -52 -50 0
368 365 -49 0
368 -365 49 0
-368 365 49 0
-368 -365 -49 0
367 52 -50 0
367 -52 50 0
-367 52 50 0
-367 -52 -50 0
-369 368 0
-369 48 0
-369 47 -50 0
-369 -47 50 0
369 -368 47 50 -48 0
369 -368 -47 -50 -48 0
371 368 -47 0
371 -368 47 0
-371 368 47 0
-371 -368 -47 0
370 50 -48 0
370 -50 48 0
-370 50 48 0
-370 -50 -48 0
-372 371 0
-372 46 0
-372 45 -48 0
-372 -45 48 0
372 -371 45 48 -46 0
372 -371 -45 -48 -46 0
374 371 -45 0
374 -371 45 0
-374 371 45 0
-374 -371 -45 0
373 48 -46 0
373 -48 46 0
-373 48 46 0
-373 -48 -46 0
-375 374 0
-375 44 0
-375 43 -46 0
-375 -43 46 0
375 -374 43 46 -44 0
375 -374 -43 -46 -44 0
377 374 -43 0
377 -374 43 0
-377 374 43 0
-377 -374 -43 0
376 46 -44 0
376 -46 44 0
-376 46 44 0
-376 -46 -44 0
-378 377 0
-378 42 0
-378 41 -44 0
-378 -41 44 0
378 -377 41 44 -42 0
378 -377 -41 -44 -42 0
380 377 -41 0
380 -377 41 0
-380 377 41 0
-380 -377 -41 0
379 44 -42 0
379 -44 42 0
-379 44 42 0
-379 -44 -42 0
-381 380 0
-381 40 0
-381 39 -42 0
-381 -39 42 0
381 -380 39 42 -40 0
381 -380 -39 -42 -40 0
383 380 -39 0
383 -380 39 0
-383 380 39 0
-383 -380 -39 0
382 42 -40 0
382 -42 40 0
-382 42 40 0
-382 -42 -40 0
-384 383 0
-384 38 0
-384 37 -40 0
-384 -37 40 0
384 -383 37 40 -38 0
384 -383 -37 -40 -38 0
386 383 -37 0
386 -383 37 0
-386 383 37 0
-386 -383 -37 0
385 40 -38 0
385 -40 38 0
-385 40 38 0
-385 -40 -38 0
-387 386 0
-387 36 0
-387 35 -38 0
-387 -35 38 0
387 -386 35 38 -36 0
387 -386 -35 -38 -36 0
389 386 -35 0
389 -386 35 0
-389 386 35 0
-389 -386 -35 0
388 38 -36 0
388 -38 36 0
-388 38 36 0
-388 -38 -36 0
-390 389 0
-390 34 0
-390 33 -36 0
-390 -33 36 0
390 -389 33 36 -34 0
390 -389 -33 -36 -34 0
392 389 -33 0
392 -389 33 0
-392 389 33 0
-392 -389 -33 0
391 36 -34 0
391 -36 34 0
-391 36 34 0
-391 -36 -34 0
-393 392 0
-393 32 0
-393 31 -34 0
-393 -31 34 0
393 -392 31 34 -32 0
393 -392 -31 -34 -32 0
395 392 -31 0
395 -392 31 0
-395 392 31 0
-395 -392 -31 0
394 34 -32 0
394 -34 32 0
-394 34 32 0
-394 -34 -32 0
-396 395 0
-396 30 0
-396 29 -32 0
-396 -29 32 0
396 -395 29 32 -30 0
396 -395 -29 -32 -30 0
398 395 -29 0
398 -395 29 0
-398 395 29 0
-398 -395 -29 0
397 32 -30 0
397 -32 30 0
-397 32 30 0
-397 -32 -30 0
-399 398 0
-399 28 0
-399 27 -30 0
-399 -27 30 0
399 -398 27 30 -28 0
399 -398 -27 -30 -28 0
401 398 -27 0
401 -398 27 0
-401 398 27 0
-401 -398 -27 0
400 30 -28 0
400 -30 28 0
-400 30 28 0
-400 -30 -28 0
-402 401 0
-402 26 0
-402 25 -28 0
-402 -25 28 0
402 -401 25 28 -26 0
402 -401 -25 -28 -26 0
404 401 -25 0
404 -401 25 0
-404 401 25 0
-404 -401 -25 0
403 28 -26 0
403 -28 26 0
-403 28 26 0
-403 -28 -26 0
-405 404 0
-405 24 0
-405 23 -26 0
-405 -23 26 0
405 -404 23 26 -24 0
405 -404 -23 -26 -24 0
407 404 -23 0
407 -404 23 0
-407 404 23 0
-407 -404 -23 0
406 26 -24 0
406 -26 24 0
-406 26 24 0
-406 -26 -24 0
-408 407 0
-408 22 0
-408 21 -24 0
-408 -21 24 0
408 -407 21 24 -22 0
408 -407 -21 -24 -22 0
410 407 -21 0
410 -407 21 0
-410 407 21 0
-410 -407 -21 0
409 24 -22 0
409 -24 22 0
-409 24 22 0
-409 -24 -22 0
-411 410 0
-411 20 0
-411 19 -22 0
-411 -19 22 0
411 -410 19 22 -20 0
411 -410 -19 -22 -20 0
413 410 -19 0
413 -410 19 0
-413 410 19 0
-413 -410 -19 0
412 22 -20 0
412 -22 20 0
-412 22 20 0
-412 -22 -20 0
-414 413 0
-414 18 0
-414 17 -20 0
-414 -17 20 0
414 -413 17 20 -18 0
414 -413 -17 -20 -18 0
416 413 -17 0
416 -413 17 0
-416 413 17 0
-416 -413 -17 0
415 20 -18 0
415 -20 18 0
-415 20 18 0
-415 -20 -18 0
-417 416 0
-417 16 0
-417 15 -18 0
-417 -15 18 0
417 -416 15 18 -16 0
417 -416 -15 -18 -16 0
419 416 -15 0
419 -416 15 0
-419 416 15 0
-419 -416 -15 0
418 18 -16 0
418 -18 16 0
-418 18 16 0
-418 -18 -16 0
-420 419 0
-420 14 0
-420 13 -16 0
-420 -13 16 0
420 -419 13 16 -14 0
420 -419 -13 -16 -14 0
422 419 -13 0
422 -419 13 0
-422 419 13 0
-422 -419 -13 0
421 16 -14 0
421 -16 14 0
-421 16 14 0
-421 -16 -14 0
-423 422 0
-423 12 0
-423 11 -14 0
-423 -11 14 0
423 -422 11 14 -12 0
423 -422 -11 -14 -12 0
425 422 -11 0
425 -422 11 0
-425 422 11 0
-425 -422 -11 0
424 14 -12 0
424 -14 12 0
-424 14 12 0
-424 -14 -12 0
-426 425 0
-426 10 0
-426 9 -12 0
-426 -9 12 0
426 -425 9 12 -10 0
426 -425 -9 -12 -10 0
428 425 -9 0
428 -425 9 0
-428 425 9 0
-428 -425 -9 0
427 12 -10 0
427 -12 10 0
-427 12 10 0
-427 -12 -10 0
-429 428 0
-429 8 0
-429 7 -10 0
-429 -7 10 0
429 -428 7 10 -8 0
429 -428 -7 -10 -8 0
431 428 -7 0
431 -428 7 0
-431 428 7 0
-431 -428 -7 0
430 10 -8 0
430 -10 8 0
-430 10 8 0
-430 -10 -8 0
-432 431 0
-432 6 0
-432 5 -8 0
-432 -5 8 0
432 -431 5 8 -6 0
432 -431 -5 -8 -6 0
434 431 -5 0
434 -431 5 0
-434 431 5 0
-434 -431 -5 0
433 8 -6 0
433 -8 6 0
-433 8 6 0
-433 -8 -6 0
-435 434 0
-435 4 0
-435 3 -6 0
-435 -3 6 0
435 -434 3 6 -4 0
435 -434 -3 -6 -4 0
437 434 -3 0
437 -434 3 0
-437 434 3 0
-437 -434 -3 0
436 6 -4 0
436 -6 4 0
-436 6 4 0
-436 -6 -4 0
-438 437 0
-438 2 0
-438 1 -4 0
-438 -1 4 0
438 -437 1 4 -2 0
438 -437 -1 -4 -2 0
440 437 -1 0
440 -437 1 0
-440 437 1 0
-440 -437 -1 0
439 4 -2 0
439 -4 2 0
-439 4 2 0
-439 -4 -2 0
-440 0
-437 0
-439 0
-434 0
-436 0
-431 0
-433 0
-428 0
-430 0
-425 0
-427 0
-422 0
-424 0
-419 0
-421 0
-416 0
-418 0
-413 0
-415 0
-410 0
-412 0
-407 0
-409 0
-404 0
-406 0
-401 0
-403 0
-398 0
-400 0
-395 0
-397 0
-392 0
-394 0
-389 0
-391 0
-386 0
-388 0
-383 0
-385 0
-380 0
-382 0
-377 0
-379 0
-374 0
-376 0
-371 0
-373 0
-368 0
-370 0
-365 0
-367 0
-362 0
-364 0
-359 0
-361 0
-356 0
-358 0
-353 0
-355 0
-350 0
-352 0
-347 0
-349 0
-344 0
-346 0
-341 0
-343 0
-338 0
-340 0
-335 0
-337 0
-332 0
-334 0
-329 0
-331 0
-326 0
-328 0
-323 0
-325 0
-320 0
-322 0
-317 0
-319 0
-314 0
-316 0
-311 0
-313 0
-308 0
-310 0
-305 0
-307 0
-302 0
-304 0
-299 0
-301 0
-296 0
-298 0
-293 0
-295 0
-290 0
-292 0
-287 0
-289 0
-284 0
-286 0
-281 0
-283 0
-278 0
-280 0
-275 0
-277 0
-272 0
-274 0
-269 0
-271 0
-266 0
-268 0
-263 0
-265 0
-260 0
-262 0
-257 0
-259 0
-254 0
-256 0
-251 0
-253 0
-248 0
-250 0
-245 0
-247 0
-242 0
-244 0
-239 0
-241 0
-236 0
-238 0
-233 0
-235 0
-230 0
-232 0
-227 0
-229 0
-224 0
-226 0
-221 0
-223 0
-218 0
-220 0
-215 0
-217 0
-212 0
-214 0
-209 0
-211 0
-206 0
-208 0
-203 0
-205 0
-200 0
-202 0
-197 0
-199 0
-194 0
-196 0
-191 0
-193 0
-188 0
-190 0
-185 0
-187 0
-178 0
-184 0
